  Job Started  at 21:33.33 12th March      2024

  Number of CPUs =     1

  Total number of configurations input =      1

*  Input for Configuration =   1                                               *

  Formula = Zn32O104C192H96

  Number of irreducible atoms/shells =     424

  Total number atoms/shells =     424

  Dimensionality = 3               :  Bulk

  Cartesian lattice vectors (Angstroms) :

       25.832000    0.000000    0.000000
        0.000000   25.832000    0.000000
        0.000000    0.000000   25.832000

  Cell parameters (Angstroms/Degrees):

  a =      25.8320    alpha =  90.0000
  b =      25.8320    beta  =  90.0000
  c =      25.8320    gamma =  90.0000

  Initial cell volume =       17237.492730 Angs**3

  Temperature of configuration =   0.00     K

  Pressure of configuration =         0.000 GPa

  Fractional coordinates of asymmetric unit :

   No.  Atomic       x           y          z         Charge      Occupancy
        Label      (Frac)      (Frac)     (Frac)        (e)         (Frac)
      1 Zn1   c    0.293380 *  0.206620 *  0.206620 *   0.00000    1.000000
      2 O2    c    0.281870 *  0.218100 *  0.134000 *   0.00000    1.000000
      3 C3    c    0.250000 *  0.250000 *  0.111300 *   0.00000    1.000000
      4 C3    c    0.250000 *  0.250000 *  0.053800 *   0.00000    1.000000
      5 C3    c    0.217100 *  0.282900 *  0.026900 *   0.00000    1.000000
      6 H4    c    0.195100 *  0.304900 *  0.044800 *   0.00000    1.000000
      7 C3    c    0.217100 *  0.282900 *  0.973100 *   0.00000    1.000000
      8 H4    c    0.195100 *  0.304900 *  0.955200 *   0.00000    1.000000
      9 C3    c    0.250000 *  0.250000 *  0.946200 *   0.00000    1.000000
     10 C3    c    0.282900 *  0.217100 *  0.973100 *   0.00000    1.000000
     11 H4    c    0.304900 *  0.195100 *  0.955200 *   0.00000    1.000000
     12 C3    c    0.282900 *  0.217100 *  0.026900 *   0.00000    1.000000
     13 H4    c    0.304900 *  0.195100 *  0.044800 *   0.00000    1.000000
     14 C3    c    0.250000 *  0.250000 *  0.888700 *   0.00000    1.000000
     15 O2    c    0.218100 *  0.281870 *  0.866000 *   0.00000    1.000000
     16 Zn1   c    0.206620 *  0.293380 *  0.793380 *   0.00000    1.000000
     17 O2    c    0.134000 *  0.281900 *  0.781870 *   0.00000    1.000000
     18 C3    c    0.111300 *  0.250000 *  0.750000 *   0.00000    1.000000
     19 C3    c    0.053800 *  0.250000 *  0.750000 *   0.00000    1.000000
     20 C3    c    0.026900 *  0.217100 *  0.717100 *   0.00000    1.000000
     21 H4    c    0.044800 *  0.195100 *  0.695100 *   0.00000    1.000000
     22 C3    c    0.973100 *  0.217100 *  0.717100 *   0.00000    1.000000
     23 H4    c    0.955200 *  0.195100 *  0.695100 *   0.00000    1.000000
     24 C3    c    0.946200 *  0.250000 *  0.750000 *   0.00000    1.000000
     25 C3    c    0.973100 *  0.282900 *  0.782900 *   0.00000    1.000000
     26 H4    c    0.955200 *  0.304900 *  0.804900 *   0.00000    1.000000
     27 C3    c    0.026900 *  0.282900 *  0.782900 *   0.00000    1.000000
     28 H4    c    0.044800 *  0.304900 *  0.804900 *   0.00000    1.000000
     29 C3    c    0.888700 *  0.250000 *  0.750000 *   0.00000    1.000000
     30 O2    c    0.866000 *  0.218130 *  0.718100 *   0.00000    1.000000
     31 Zn1   c    0.793380 *  0.206620 *  0.706620 *   0.00000    1.000000
     32 O2    c    0.781870 *  0.218100 *  0.634000 *   0.00000    1.000000
     33 C3    c    0.750000 *  0.250000 *  0.611300 *   0.00000    1.000000
     34 C3    c    0.750000 *  0.250000 *  0.553800 *   0.00000    1.000000
     35 C3    c    0.717100 *  0.282900 *  0.526900 *   0.00000    1.000000
     36 H4    c    0.695100 *  0.304900 *  0.544800 *   0.00000    1.000000
     37 C3    c    0.717100 *  0.282900 *  0.473100 *   0.00000    1.000000
     38 H4    c    0.695100 *  0.304900 *  0.455200 *   0.00000    1.000000
     39 C3    c    0.750000 *  0.250000 *  0.446200 *   0.00000    1.000000
     40 C3    c    0.782900 *  0.217100 *  0.473100 *   0.00000    1.000000
     41 H4    c    0.804900 *  0.195100 *  0.455200 *   0.00000    1.000000
     42 C3    c    0.782900 *  0.217100 *  0.526900 *   0.00000    1.000000
     43 H4    c    0.804900 *  0.195100 *  0.544800 *   0.00000    1.000000
     44 C3    c    0.750000 *  0.250000 *  0.388700 *   0.00000    1.000000
     45 O2    c    0.781900 *  0.218130 *  0.366000 *   0.00000    1.000000
     46 Zn1   c    0.793380 *  0.206620 *  0.293380 *   0.00000    1.000000
     47 O2    c    0.781870 *  0.134000 *  0.281900 *   0.00000    1.000000
     48 C3    c    0.750000 *  0.111300 *  0.250000 *   0.00000    1.000000
     49 C3    c    0.750000 *  0.053800 *  0.250000 *   0.00000    1.000000
     50 C3    c    0.717100 *  0.026900 *  0.217100 *   0.00000    1.000000
     51 H4    c    0.695100 *  0.044800 *  0.195100 *   0.00000    1.000000
     52 C3    c    0.717100 *  0.973100 *  0.217100 *   0.00000    1.000000
     53 H4    c    0.695100 *  0.955200 *  0.195100 *   0.00000    1.000000
     54 C3    c    0.750000 *  0.946200 *  0.250000 *   0.00000    1.000000
     55 C3    c    0.782900 *  0.973100 *  0.282900 *   0.00000    1.000000
     56 H4    c    0.804900 *  0.955200 *  0.304900 *   0.00000    1.000000
     57 C3    c    0.782900 *  0.026900 *  0.282900 *   0.00000    1.000000
     58 H4    c    0.804900 *  0.044800 *  0.304900 *   0.00000    1.000000
     59 C3    c    0.750000 *  0.888700 *  0.250000 *   0.00000    1.000000
     60 O2    c    0.718100 *  0.866000 *  0.218130 *   0.00000    1.000000
[...]
    410 O2    c    0.781900 *  0.866000 *  0.281870 *   0.00000    1.000000
    411 O2    c    0.781870 *  0.781900 *  0.366000 *   0.00000    1.000000
    412 O5    c    0.750000 *  0.750000 *  0.250000 *   0.00000    1.000000
    413 O2    c    0.781900 *  0.634000 *  0.218130 *   0.00000    1.000000
    414 O2    c    0.718130 *  0.781900 *  0.134000 *   0.00000    1.000000
    415 O2    c    0.218130 *  0.218100 *  0.366000 *   0.00000    1.000000
    416 O2    c    0.634000 *  0.218100 *  0.218130 *   0.00000    1.000000
    417 Zn1   c    0.706620 *  0.206620 *  0.206620 *   0.00000    1.000000
    418 O2    c    0.718100 *  0.218130 *  0.134000 *   0.00000    1.000000
    419 O2    c    0.718130 *  0.134000 *  0.218100 *   0.00000    1.000000
    420 O5    c    0.750000 *  0.250000 *  0.250000 *   0.00000    1.000000
    421 O2    c    0.718100 *  0.281870 *  0.366000 *   0.00000    1.000000
    422 O2    c    0.634000 *  0.718130 *  0.281900 *   0.00000    1.000000
    423 O2    c    0.781900 *  0.134000 *  0.718130 *   0.00000    1.000000
    424 O2    c    0.281900 *  0.134000 *  0.218130 *   0.00000    1.000000

  Initial Cartesian coordinates :

   No.  Atomic        x           y           z          Charge   Occupancy
        Label       (Angs)      (Angs)      (Angs)        (e)       (Frac)
      1 Zn1   c     7.578592    5.337408    5.337408    0.000000    1.000000
      2 O2    c     7.281266    5.633959    3.461488    0.000000    1.000000
      3 C3    c     6.458000    6.458000    2.875102    0.000000    1.000000
      4 C3    c     6.458000    6.458000    1.389762    0.000000    1.000000
      5 C3    c     5.608127    7.307873    0.694881    0.000000    1.000000
      6 H4    c     5.039823    7.876177    1.157274    0.000000    1.000000
      7 C3    c     5.608127    7.307873   25.137119    0.000000    1.000000
      8 H4    c     5.039823    7.876177   24.674726    0.000000    1.000000
      9 C3    c     6.458000    6.458000   24.442238    0.000000    1.000000
     10 C3    c     7.307873    5.608127   25.137119    0.000000    1.000000
     11 H4    c     7.876177    5.039823   24.674726    0.000000    1.000000
     12 C3    c     7.307873    5.608127    0.694881    0.000000    1.000000
     13 H4    c     7.876177    5.039823    1.157274    0.000000    1.000000
     14 C3    c     6.458000    6.458000   22.956898    0.000000    1.000000
     15 O2    c     5.633959    7.281266   22.370512    0.000000    1.000000
     16 Zn1   c     5.337408    7.578592   20.494592    0.000000    1.000000
     17 O2    c     3.461488    7.282041   20.197266    0.000000    1.000000
     18 C3    c     2.875102    6.458000   19.374000    0.000000    1.000000
     19 C3    c     1.389762    6.458000   19.374000    0.000000    1.000000
     20 C3    c     0.694881    5.608127   18.524127    0.000000    1.000000
     21 H4    c     1.157274    5.039823   17.955823    0.000000    1.000000
     22 C3    c    25.137119    5.608127   18.524127    0.000000    1.000000
     23 H4    c    24.674726    5.039823   17.955823    0.000000    1.000000
     24 C3    c    24.442238    6.458000   19.374000    0.000000    1.000000
     25 C3    c    25.137119    7.307873   20.223873    0.000000    1.000000
     26 H4    c    24.674726    7.876177   20.792177    0.000000    1.000000
     27 C3    c     0.694881    7.307873   20.223873    0.000000    1.000000
     28 H4    c     1.157274    7.876177   20.792177    0.000000    1.000000
     29 C3    c    22.956898    6.458000   19.374000    0.000000    1.000000
     30 O2    c    22.370512    5.634734   18.549959    0.000000    1.000000
     31 Zn1   c    20.494592    5.337408   18.253408    0.000000    1.000000
     32 O2    c    20.197266    5.633959   16.377488    0.000000    1.000000
     33 C3    c    19.374000    6.458000   15.791102    0.000000    1.000000
     34 C3    c    19.374000    6.458000   14.305762    0.000000    1.000000
     35 C3    c    18.524127    7.307873   13.610881    0.000000    1.000000
     36 H4    c    17.955823    7.876177   14.073274    0.000000    1.000000
     37 C3    c    18.524127    7.307873   12.221119    0.000000    1.000000
     38 H4    c    17.955823    7.876177   11.758726    0.000000    1.000000
     39 C3    c    19.374000    6.458000   11.526238    0.000000    1.000000
     40 C3    c    20.223873    5.608127   12.221119    0.000000    1.000000
     41 H4    c    20.792177    5.039823   11.758726    0.000000    1.000000
     42 C3    c    20.223873    5.608127   13.610881    0.000000    1.000000
     43 H4    c    20.792177    5.039823   14.073274    0.000000    1.000000
     44 C3    c    19.374000    6.458000   10.040898    0.000000    1.000000
     45 O2    c    20.198041    5.634734    9.454512    0.000000    1.000000
     46 Zn1   c    20.494592    5.337408    7.578592    0.000000    1.000000
     47 O2    c    20.197266    3.461488    7.282041    0.000000    1.000000
     48 C3    c    19.374000    2.875102    6.458000    0.000000    1.000000
     49 C3    c    19.374000    1.389762    6.458000    0.000000    1.000000
     50 C3    c    18.524127    0.694881    5.608127    0.000000    1.000000
     51 H4    c    17.955823    1.157274    5.039823    0.000000    1.000000
     52 C3    c    18.524127   25.137119    5.608127    0.000000    1.000000
     53 H4    c    17.955823   24.674726    5.039823    0.000000    1.000000
     54 C3    c    19.374000   24.442238    6.458000    0.000000    1.000000
     55 C3    c    20.223873   25.137119    7.307873    0.000000    1.000000
[...]
     9  C3    c     0.249512    0.249987    0.947443    0.000000
    10  C3    c     0.281550    0.217894    0.973982    0.000000
    11  H4    c     0.307585    0.191808    0.953939    0.000000
    12  C3    c     0.281560    0.217904    0.026028    0.000000
    13  H4    c     0.307604    0.191824    0.046068    0.000000
    14  C3    c     0.249511    0.249984    0.890349    0.000000
    15  O2    c     0.220390    0.279117    0.867277    0.000000
    16  Zn1   c     0.206786    0.292717    0.792735    0.000000
    17  O2    c     0.132250    0.279109    0.779131    0.000000
    18  C3    c     0.109175    0.249986    0.750004    0.000000
    19  C3    c     0.052080    0.249983    0.750011    0.000000
    20  C3    c     0.025538    0.217928    0.717934    0.000000
    21  H4    c     0.045580    0.191872    0.691863    0.000000
    22  C3    c     0.973489    0.217925    0.717936    0.000000
    23  H4    c     0.953449    0.191872    0.691862    0.000000
    24  C3    c     0.946945    0.249970    0.750020    0.000000
    25  C3    c     0.973487    0.282016    0.782102    0.000000
    26  H4    c     0.953443    0.308060    0.808182    0.000000
    27  C3    c     0.025535    0.282025    0.782097    0.000000
    28  H4    c     0.045576    0.308063    0.808179    0.000000
    29  C3    c     0.889851    0.249964    0.750025    0.000000
    30  O2    c     0.866779    0.220840    0.720894    0.000000
    31  Zn1   c     0.792245    0.207242    0.707292    0.000000
    32  O2    c     0.778643    0.220855    0.632757    0.000000
    33  C3    c     0.749517    0.249982    0.609687    0.000000
    34  C3    c     0.749514    0.249981    0.552595    0.000000
    35  C3    c     0.717466    0.282064    0.526047    0.000000
    36  H4    c     0.691418    0.308135    0.546089    0.000000
    37  C3    c     0.717468    0.282066    0.473999    0.000000
    38  H4    c     0.691426    0.308144    0.453957    0.000000
    39  C3    c     0.749510    0.249977    0.447454    0.000000
    40  C3    c     0.781548    0.217880    0.473998    0.000000
    41  H4    c     0.807582    0.191792    0.453956    0.000000
    42  C3    c     0.781551    0.217888    0.526046    0.000000
    43  H4    c     0.807593    0.191807    0.546088    0.000000
    44  C3    c     0.749515    0.249979    0.390360    0.000000
    45  O2    c     0.778638    0.220847    0.367288    0.000000
    46  Zn1   c     0.792254    0.207253    0.292750    0.000000
    47  O2    c     0.778647    0.132720    0.279138    0.000000
    48  C3    c     0.749522    0.109646    0.250012    0.000000
    49  C3    c     0.749521    0.052554    0.250019    0.000000
    50  C3    c     0.717454    0.026009    0.217959    0.000000
    51  H4    c     0.691393    0.046052    0.191893    0.000000
    52  C3    c     0.717455    0.973962    0.217957    0.000000
    53  H4    c     0.691397    0.953923    0.191890    0.000000
    54  C3    c     0.749521    0.947418    0.250018    0.000000
    55  C3    c     0.781582    0.973960    0.282087    0.000000
    56  H4    c     0.807637    0.953912    0.308152    0.000000
    57  C3    c     0.781584    0.026010    0.282087    0.000000
    58  H4    c     0.807639    0.046046    0.308158    0.000000
    59  C3    c     0.749518    0.890325    0.250008    0.000000
    60  O2    c     0.720388    0.867258    0.220881    0.000000
[...]
   410  O2    c     0.778646    0.867250    0.279133    0.000000
   411  O2    c     0.778641    0.779101    0.367274    0.000000
   412  O5    c     0.749508    0.749984    0.250004    0.000000
   413  O2    c     0.778651    0.632714    0.220887    0.000000
   414  O2    c     0.720374    0.779103    0.132744    0.000000
   415  O2    c     0.220413    0.220877    0.367270    0.000000
   416  O2    c     0.632256    0.220859    0.220890    0.000000
   417  Zn1   c     0.706790    0.207257    0.207294    0.000000
   418  O2    c     0.720386    0.220865    0.132757    0.000000
   419  O2    c     0.720395    0.132717    0.220884    0.000000
   420  O5    c     0.749522    0.249981    0.250020    0.000000
   421  O2    c     0.720393    0.279110    0.367288    0.000000
   422  O2    c     0.632246    0.720865    0.279142    0.000000
   423  O2    c     0.778641    0.132702    0.720892    0.000000
   424  O2    c     0.278644    0.132735    0.220882    0.000000

  Final Cartesian coordinates :

   No.  Atomic        x           y           z          Charge   Occupancy
        Label       (Angs)      (Angs)      (Angs)        (e)       (Frac)
     1  Zn1   c     7.549606    5.354240    5.354291    0.000000    1.000000
     2  O2    c     7.198135    5.705750    3.428956    0.000000    1.000000
     3  C3    c     6.445768    6.458114    2.832906    0.000000    1.000000
     4  C3    c     6.445656    6.457913    1.358229    0.000000    1.000000
     5  C3    c     5.617736    7.286639    0.672490    0.000000    1.000000
     6  H4    c     4.944903    7.960138    1.190333    0.000000    1.000000
     7  C3    c     5.617728    7.286664   25.160021    0.000000    1.000000
     8  H4    c     4.944908    7.960379   24.642463    0.000000    1.000000
     9  C3    c     6.445392    6.457670   24.474360    0.000000    1.000000
    10  C3    c     7.273006    5.628630   25.159904    0.000000    1.000000
    11  H4    c     7.945542    4.954781   24.642141    0.000000    1.000000
    12  C3    c     7.273255    5.628903    0.672348    0.000000    1.000000
    13  H4    c     7.946031    4.955193    1.190036    0.000000    1.000000
    14  C3    c     6.445367    6.457592   22.999501    0.000000    1.000000
    15  O2    c     5.693114    7.210148   22.403497    0.000000    1.000000
    16  Zn1   c     5.341687    7.561468   20.477930    0.000000    1.000000
    17  O2    c     3.416273    7.209940   20.126524    0.000000    1.000000
    18  C3    c     2.820198    6.457637   19.374112    0.000000    1.000000
    19  C3    c     1.345338    6.457566   19.374283    0.000000    1.000000
    20  C3    c     0.659694    5.629515   18.545665    0.000000    1.000000
    21  H4    c     1.177434    4.956429   17.872214    0.000000    1.000000
    22  C3    c    25.147180    5.629438   18.545712    0.000000    1.000000
    23  H4    c    24.629498    4.956449   17.872182    0.000000    1.000000
    24  C3    c    24.461480    6.457214   19.374520    0.000000    1.000000
    25  C3    c    25.147105    7.285044   20.203264    0.000000    1.000000
    26  H4    c    24.629334    7.957799   20.876965    0.000000    1.000000
    27  C3    c     0.659608    7.285271   20.203139    0.000000    1.000000
    28  H4    c     1.177329    7.957883   20.876889    0.000000    1.000000
    29  C3    c    22.986643    6.457078   19.374635    0.000000    1.000000
    30  O2    c    22.390644    5.704743   18.622131    0.000000    1.000000
    31  Zn1   c    20.465275    5.353475   18.270769    0.000000    1.000000
    32  O2    c    20.113915    5.705115   16.345392    0.000000    1.000000
    33  C3    c    19.361536    6.457532   15.749441    0.000000    1.000000
    34  C3    c    19.361450    6.457517   14.274630    0.000000    1.000000
    35  C3    c    18.533579    7.286267   13.588857    0.000000    1.000000
    36  H4    c    17.860714    7.959738   14.106583    0.000000    1.000000
    37  C3    c    18.533642    7.286330   12.244347    0.000000    1.000000
    38  H4    c    17.860911    7.959971   11.726623    0.000000    1.000000
    39  C3    c    19.361352    6.457412   11.558627    0.000000    1.000000
    40  C3    c    20.188952    5.628272   12.244318    0.000000    1.000000
    41  H4    c    20.861469    4.954368   11.726588    0.000000    1.000000
    42  C3    c    20.189027    5.628485   13.588826    0.000000    1.000000
    43  H4    c    20.861739    4.954752   14.106541    0.000000    1.000000
    44  C3    c    19.361467    6.457452   10.083777    0.000000    1.000000
    45  O2    c    20.113783    5.704929    9.487792    0.000000    1.000000
    46  Zn1   c    20.465495    5.353756    7.562313    0.000000    1.000000
    47  O2    c    20.114014    3.428427    7.210691    0.000000    1.000000
    48  C3    c    19.361649    2.832385    6.458314    0.000000    1.000000
    49  C3    c    19.361622    1.357577    6.458501    0.000000    1.000000
    50  C3    c    18.533260    0.671866    5.630309    0.000000    1.000000
    51  H4    c    17.860076    1.189612    4.956971    0.000000    1.000000
    52  C3    c    18.533286   25.159398    5.630267    0.000000    1.000000
    53  H4    c    17.860154   24.641732    4.956906    0.000000    1.000000
    54  C3    c    19.361630   24.473698    6.458458    0.000000    1.000000
    55  C3    c    20.189838   25.159344    7.286873    0.000000    1.000000
    56  H4    c    20.862882   24.641448    7.960177    0.000000    1.000000
    57  C3    c    20.189870    0.671892    7.286868    0.000000    1.000000
    58  H4    c    20.862942    1.189464    7.960327    0.000000    1.000000
    59  C3    c    19.361556   22.998880    6.458219    0.000000    1.000000
    60  O2    c    18.609051   22.402997    5.705799    0.000000    1.000000
[...]
   410  O2    c    20.113981   22.402795    7.210552    0.000000    1.000000
   411  O2    c    20.113852   20.125741    9.487418    0.000000    1.000000
   412  O5    c    19.361290   19.373590    6.458096    0.000000    1.000000
   413  O2    c    20.114113   16.344260    5.705953    0.000000    1.000000
   414  O2    c    18.608692   20.125779    3.429033    0.000000    1.000000
   415  O2    c     5.693696    5.705691    9.487323    0.000000    1.000000
   416  O2    c    16.332438    5.705229    5.706029    0.000000    1.000000
   417  Zn1   c    18.257795    5.353850    5.354819    0.000000    1.000000
   418  O2    c    18.609010    5.705396    3.429371    0.000000    1.000000
   419  O2    c    18.609254    3.428333    5.705877    0.000000    1.000000
   420  O5    c    19.361661    6.457513    6.458518    0.000000    1.000000
   421  O2    c    18.609205    7.209979    9.487774    0.000000    1.000000
   422  O2    c    16.332191   18.621375    7.210805    0.000000    1.000000
   423  O2    c    20.113842    3.427969   18.622085    0.000000    1.000000
   424  O2    c     7.197932    3.428799    5.705822    0.000000    1.000000

  Final internal derivatives :

   No.  Atomic          a             b             c           Radius
        Label          (eV)          (eV)          (eV)        (eV/Angs)
      1 Zn1   c       0.032357     -0.000808     -0.029773      0.000000
      2 O2    c      -0.000108      0.007873     -0.004257      0.000000
      3 C3    c       0.018574      0.032360     -0.139090      0.000000
      4 C3    c       0.006501      0.003439      0.425604      0.000000
      5 C3    c      -0.069687      0.046473     -0.145366      0.000000
      6 H4    c      -0.005656     -0.026750      0.051754      0.000000
      7 C3    c      -0.010777      0.045517     -0.024981      0.000000
      8 H4    c      -0.019461      0.017946      0.038286      0.000000
      9 C3    c       0.042927      0.002439      0.092654      0.000000
     10 C3    c       0.037374     -0.106450     -0.028140      0.000000
     11 H4    c      -0.003161     -0.002809     -0.018045      0.000000
     12 C3    c      -0.000011      0.023047     -0.249021      0.000000
     13 H4    c       0.016515     -0.018522      0.017141      0.000000
     14 C3    c      -0.030022     -0.065111     -0.049774      0.000000
     15 O2    c      -0.006677      0.094975      0.080834      0.000000
     16 Zn1   c      -0.042739      0.003234     -0.086067      0.000000
     17 O2    c      -0.013044     -0.031272      0.012204      0.000000
     18 C3    c      -0.025824      0.092099      0.052827      0.000000
     19 C3    c       0.040999      0.058941      0.036054      0.000000
     20 C3    c      -0.006112      0.000389      0.001743      0.000000
     21 H4    c       0.034628     -0.067627     -0.027645      0.000000
     22 C3    c      -0.000727      0.030845      0.002133      0.000000
     23 H4    c      -0.015713     -0.030333     -0.028049      0.000000
     24 C3    c      -0.020245      0.053940      0.025915      0.000000
     25 C3    c      -0.005684     -0.075886     -0.037865      0.000000
     26 H4    c      -0.031975      0.030202      0.020602      0.000000
     27 C3    c      -0.037352      0.066158      0.014742      0.000000
     28 H4    c       0.009455     -0.042326      0.005587      0.000000
     29 C3    c      -0.022743     -0.020572      0.032257      0.000000
     30 O2    c       0.011135     -0.070206     -0.077489      0.000000
     31 Zn1   c      -0.005134      0.025326     -0.001330      0.000000
     32 O2    c       0.015528      0.017809     -0.043403      0.000000
     33 C3    c       0.012917     -0.018813      0.011473      0.000000
     34 C3    c       0.018803      0.035269      0.293322      0.000000
     35 C3    c      -0.079533      0.058008     -0.081048      0.000000
     36 H4    c       0.008822     -0.041923      0.003184      0.000000
     37 C3    c      -0.041071      0.065698      0.034501      0.000000
     38 H4    c       0.008663     -0.014554     -0.005247      0.000000
     39 C3    c      -0.063681      0.094899     -0.116610      0.000000
     40 C3    c       0.134249     -0.172349      0.022490      0.000000
     41 H4    c      -0.006522     -0.014024     -0.019971      0.000000
     42 C3    c      -0.028988      0.017700     -0.113229      0.000000
     43 H4    c       0.013383     -0.008476      0.013308      0.000000
     44 C3    c       0.022280      0.020130     -0.006176      0.000000
     45 O2    c       0.020754     -0.067828      0.031944      0.000000
     46 Zn1   c       0.029226     -0.010597      0.000274      0.000000
     47 O2    c       0.004296     -0.017292     -0.004338      0.000000
     48 C3    c      -0.011276     -0.017706     -0.020699      0.000000
     49 C3    c      -0.000858      0.089098      0.006334      0.000000
     50 C3    c       0.012177     -0.081545      0.069142      0.000000
     51 H4    c      -0.031327      0.043741     -0.045534      0.000000
     52 C3    c      -0.005418      0.008777      0.039615      0.000000
     53 H4    c      -0.004557     -0.014003     -0.023309      0.000000
     54 C3    c       0.056839     -0.062901      0.036806      0.000000
     55 C3    c       0.004831      0.035675      0.008444      0.000000
     56 H4    c       0.002854     -0.061093      0.017225      0.000000
     57 C3    c       0.012025      0.066659     -0.038744      0.000000
     58 H4    c       0.001412     -0.030281      0.035641      0.000000
     59 C3    c      -0.045627      0.008031     -0.056873      0.000000
     60 O2    c      -0.045814      0.051747     -0.054218      0.000000
[...]
    410 O2    c       0.083289      0.054147      0.055726      0.000000
    411 O2    c      -0.006120     -0.022079      0.073817      0.000000
    412 O5    c      -0.007594      0.013614      0.024821      0.000000
    413 O2    c       0.044279     -0.123867      0.008304      0.000000
    414 O2    c      -0.031939      0.024576     -0.048669      0.000000
    415 O2    c      -0.003000     -0.013158      0.158355      0.000000
    416 O2    c      -0.012698      0.001882     -0.000749      0.000000
    417 Zn1   c      -0.015075      0.028417      0.072153      0.000000
    418 O2    c      -0.052439     -0.001541     -0.008841      0.000000
    419 O2    c      -0.003008     -0.054149     -0.053946      0.000000
    420 O5    c      -0.005028     -0.055555     -0.038113      0.000000
    421 O2    c      -0.041028      0.015334      0.037794      0.000000
    422 O2    c      -0.007863      0.071313     -0.031448      0.000000
    423 O2    c       0.009539     -0.088296      0.045237      0.000000
    424 O2    c      -0.002744      0.001974     -0.041526      0.000000
  Maximum abs         0.166305      0.186266      0.425604      0.000000

  Time to end of optimisation =     145.5321 seconds

  Timing analysis for GULP :

  Task / Subroutine                                          Time (Seconds)
  Calculation of real space energy and derivatives               18.5020
  Calculation of three-body energy and derivatives               18.1448
  Calculation of four-body energy and derivatives                 3.2972
  Calculation of molecules and connectivity                     102.4379
  Calculation and manipulation of Hessian matrix                  0.0061
  Calculation of matrix inversion                                 2.9731

  CIF file written as EDUSIF.cif

  Job Finished at 21:35.59 12th March      2024